91 9 40 53 66 55 96 80 30 22 28 50 75 23 63 93 19 41 90 7 86 39 36 46 60 89 16 74 58 42 85 69 68 71 8 4 27 10 34 1 97 5 76 26 49 92 47 57 84 87 79 35 48 3 56 21 15 43 45 32 95 6 20 38 17 29 11 72 59 51 31 25 0 83 24 52 99 33 14 88 67 2 54 61 65 78 18 70 12 64 77 13 94 73 37 98 44 82 62 81 

